p cnf 50 132
-1 -29 0
-1 -30 0
29 -29 0
30 -30 0
-15 -31 0
-15 -32 0
31 -31 0
32 -32 0
2 -29 0
2 -30 0
29 -29 0
30 -30 0
16 -31 0
16 -32 0
31 -31 0
32 -32 0
3 -29 0
3 -30 0
29 -29 0
30 -30 0
17 -31 0
17 -32 0
31 -31 0
32 -32 0
4 -33 -29 0
-4 33 -29 0
4 33 -30 0
-4 -33 -30 0
18 -33 -31 0
-18 33 -31 0
18 33 -32 0
-18 -33 -32 0
5 -29 0
5 -30 0
29 -29 0
30 -30 0
19 -31 0
19 -32 0
31 -31 0
32 -32 0
-6 -29 0
-6 -30 0
29 -29 0
30 -30 0
-20 -31 0
-20 -32 0
31 -31 0
32 -32 0
7 -29 0
7 -30 0
29 -29 0
30 -30 0
21 -31 0
21 -32 0
31 -31 0
32 -32 0
8 -34 -29 0
-8 34 -29 0
8 34 -30 0
-8 -34 -30 0
22 -34 -31 0
-22 34 -31 0
22 34 -32 0
-22 -34 -32 0
-9 -29 0
-9 -30 0
29 -29 0
30 -30 0
-23 -31 0
-23 -32 0
31 -31 0
32 -32 0
10 -35 -29 0
-10 35 -29 0
10 35 -30 0
-10 -35 -30 0
24 -35 -31 0
-24 35 -31 0
24 35 -32 0
-24 -35 -32 0
11 -36 -29 0
-11 36 -29 0
11 36 -30 0
-11 -36 -30 0
25 -36 -31 0
-25 36 -31 0
25 36 -32 0
-25 -36 -32 0
12 -29 0
12 -30 0
29 -29 0
30 -30 0
26 -31 0
26 -32 0
31 -31 0
32 -32 0
13 -37 -29 0
-13 37 -29 0
13 37 -30 0
-13 -37 -30 0
27 -37 -31 0
-27 37 -31 0
27 37 -32 0
-27 -37 -32 0
14 -38 -29 0
-14 38 -29 0
14 38 -30 0
-14 -38 -30 0
28 -38 -31 0
-28 38 -31 0
28 38 -32 0
-28 -38 -32 0
-47 29 0
47 -29 0
-48 30 0
47 -30 0
-47 -29 0
-48 -30 0
-49 29 47 0
49 -29 0
49 -47 0
-50 30 48 0
50 -30 0
50 -48 0
-49 -31 0
-50 -32 0
49 0
50 0
-29 32 0
-30 0
-31 0
-32 29 0
